files/upTests/_matrix_of_tuples/withMutiMutiMatrix2Single/0001.eprime.solution
language ESSENCE' 1.0
$ minion Nodes: 1
$ minion TotalTime: 0.000418
$ Savile Row TotalTime: 0.158
letting pain_tuple1 be [2, 2]
letting pain_tuple2_tuple1 be [[4, 5], 
[4, 5]]
letting pain_tuple2_tuple2 be [[10, 11], 
[10, 11]]
